c preprocessed version of dimacs_zeroin.i.2, 46 vertices, 561 edges
p td 46 561
0 1
0 4
0 3
0 2
0 6
0 7
0 8
0 9
0 5
10 0
16 0
18 0
19 0
20 0
17 0
13 0
26 0
27 0
29 0
2 1
3 1
5 1
7 1
6 1
4 1
1 8
1 9
1 12
1 11
10 1
13 1
26 1
28 1
30 1
27 1
29 1
3 2
2 4
10 2
16 2
18 2
19 2
20 2
17 2
13 2
26 2
28 2
31 2
3 4
3 6
3 7
3 8
3 5
3 9
3 12
3 11
10 3
16 3
18 3
19 3
20 3
17 3
13 3
26 3
27 3
29 3
5 4
6 4
7 4
4 8
4 9
10 4
16 4
18 4
19 4
20 4
17 4
13 4
26 4
28 4
27 4
29 4
5 6
5 7
5 8
5 9
5 12
5 11
10 5
16 5
18 5
19 5
20 5
17 5
13 5
26 5
28 5
27 5
29 5
7 6
6 8
6 9
6 12
6 11
10 6
16 6
18 6
19 6
20 6
17 6
13 6
26 6
28 6
27 6
29 6
7 8
7 9
7 12
7 11
10 7
16 7
18 7
19 7
20 7
17 7
13 7
26 7
28 7
27 7
29 7
8 9
8 12
8 11
10 8
16 8
18 8
19 8
20 8
17 8
13 8
26 8
28 8
30 8
27 8
29 8
10 9
13 9
26 9
28 9
30 9
27 9
10 11
10 12
15 10
10 16
10 17
10 18
10 19
10 20
10 14
10 21
10 23
10 25
10 24
10 22
27 10
29 10
11 12
13 11
26 11
28 11
30 11
29 11
13 12
26 12
28 12
30 12
29 12
13 14
13 21
13 22
13 23
13 24
13 25
13 32
13 33
13 27
13 29
13 26
13 28
13 30
13 31
15 14
16 14
14 17
18 14
19 14
20 14
14 22
14 24
14 25
14 23
14 21
26 14
15 16
15 17
15 18
15 19
15 20
15 21
15 23
15 25
15 24
15 22
16 17
16 18
16 19
16 20
16 21
16 23
16 25
16 24
16 22
18 17
19 17
20 17
21 17
23 17
25 17
24 17
22 17
18 19
18 20
18 21
18 23
18 25
18 24
18 22
19 20
19 21
19 23
19 25
19 24
19 22
20 21
20 23
20 25
20 24
20 22
21 22
21 24
21 25
21 23
26 21
23 22
25 22
24 22
26 22
23 24
23 25
26 23
25 24
26 24
26 25
26 27
26 29
26 28
26 30
26 31
28 27
30 27
27 29
31 27
28 29
28 30
28 31
30 29
31 29
30 31
34 36
34 37
34 38
34 0
34 13
34 26
34 28
34 30
34 31
34 2
34 3
34 1
34 5
34 6
34 7
34 8
34 4
34 27
34 9
34 29
34 11
34 12
34 41
34 43
34 40
34 32
34 33
34 35
34 45
34 42
34 44
34 14
34 21
34 23
34 25
34 24
34 22
34 39
35 0
35 1
35 2
35 3
35 4
35 5
35 6
35 7
35 8
35 9
35 11
35 12
35 14
35 41
35 40
35 32
35 33
35 36
35 37
35 38
35 43
35 45
35 42
35 44
35 39
35 27
35 29
35 31
36 0
36 1
36 2
36 3
36 4
36 5
36 6
36 7
36 8
36 9
36 11
36 12
36 14
36 21
36 22
36 23
36 24
36 25
36 41
36 40
36 32
36 33
36 37
36 38
36 45
36 44
36 42
36 43
36 39
36 27
36 29
36 31
37 0
37 1
37 2
37 3
37 4
37 5
37 6
37 7
37 8
37 9
37 11
37 12
37 14
37 21
37 22
37 23
37 24
37 25
37 41
37 40
37 32
37 33
37 38
37 45
37 44
37 42
37 43
37 39
37 27
37 29
37 31
38 0
38 1
38 2
38 3
38 4
38 5
38 6
38 7
38 8
38 9
38 11
38 12
38 14
38 21
38 22
38 23
38 24
38 25
38 41
38 40
38 32
38 33
38 45
38 44
38 42
38 43
38 39
38 27
38 29
38 31
39 0
39 1
39 2
39 3
39 4
39 5
39 6
39 7
39 8
39 9
39 10
39 11
39 12
39 14
39 15
39 16
39 17
39 18
39 19
39 20
39 21
39 22
39 23
39 24
39 25
39 41
39 40
39 32
39 33
39 45
39 42
39 43
39 44
39 27
39 29
39 31
40 45
40 41
40 32
40 42
40 43
40 44
41 45
41 42
41 43
41 44
41 13
42 45
42 0
42 1
42 2
42 3
42 4
42 5
42 6
42 7
42 8
42 9
42 11
42 12
42 14
42 21
42 22
42 23
42 24
42 25
42 32
42 33
42 43
42 44
42 27
42 29
42 31
43 45
43 32
43 44
44 45
44 0
44 1
44 2
44 3
44 4
44 5
44 6
44 7
44 8
44 9
44 11
44 12
44 14
44 21
44 22
44 23
44 24
44 25
44 32
44 33
44 27
44 29
44 31
45 0
45 1
45 2
45 3
45 4
45 5
45 6
45 7
45 8
45 9
45 11
45 12
45 14
45 21
45 22
45 23
45 24
45 25
45 32
45 33
45 27
45 29
45 31
